Minimize
	value: tt

Subject to
tt + 500 s_1_1 > 0
tt - t_1_1 - 503.000000 s_1_1 + 3.000000 s_1_6 > -496.252093
tt + 500 s_2_1 > 0
tt - t_2_1 - 503.000000 s_2_1 + 3.000000 s_2_6 > -490.900480
tt + 500 s_1_2 > 0
tt - t_1_2 - 503.000000 s_1_2 + 3.000000 s_1_7 > -495.334527
tt + 500 s_2_2 > 0
tt - t_2_2 - 503.000000 s_2_2 + 3.000000 s_2_7 > -492.129836
tt + 500 s_1_3 > 0
tt - t_1_3 - 503.000000 s_1_3 + 3.000000 s_1_7 > -494.693293
tt + 500 s_2_3 > 0
tt - t_2_3 - 503.000000 s_2_3 + 3.000000 s_2_7 > -495.798101
tt + 500 s_1_4 > 0
tt - t_1_4 - 512.000000 s_1_4 + 12.000000 s_1_7 > -497.330533
tt + 500 s_2_4 > 0
tt - t_2_4 - 512.000000 s_2_4 + 12.000000 s_2_7 > -495.670107
tt + 500 s_1_5 > 0
tt - t_1_5 - 512.000000 s_1_5 + 12.000000 s_1_7 > -497.691080
tt + 500 s_2_5 > 0
tt - t_2_5 - 512.000000 s_2_5 + 12.000000 s_2_7 > -498.364740
tt + 500 s_1_6 > 0
tt - t_1_6 - 500.000000 s_1_6 > -494.975720
tt + 500 s_2_6 > 0
tt - t_2_6 - 500.000000 s_2_6 > -499.786244
tt + 500 s_1_7 > 0
tt - t_1_7 - 500.000000 s_1_7 > -495.297227
tt + 500 s_2_7 > 0
tt - t_2_7 - 500.000000 s_2_7 > -499.691308
tt + 500 s_1_8 > 0
tt - t_1_8 - 575.000000 s_1_8 + 75.000000 s_1_1 > -499.621640
tt + 500 s_2_8 > 0
tt - t_2_8 - 575.000000 s_2_8 + 75.000000 s_2_1 > -499.390615
s_1_1 + s_2_1  = 1
s_1_2 + s_2_2  = 1
s_1_3 + s_2_3  = 1
s_1_4 + s_2_4  = 1
s_1_5 + s_2_5  = 1
s_1_6 + s_2_6  = 1
s_1_7 + s_2_7  = 1
s_1_8 + s_2_8  = 1
t_1_1 - t_1_2 + 500.000000 u_1_1_2 - 3.000000 s_1_2 + 3.000000 s_1_7 > 4.665473
t_1_2 - t_1_1 - 500.000000 u_1_1_2 > -496.252093
t_2_1 - t_2_2 + 500.000000 u_2_1_2 - 3.000000 s_2_2 + 3.000000 s_2_7 > 7.870164
t_2_2 - t_2_1 - 500.000000 u_2_1_2 > -490.900480
t_1_1 - t_1_3 + 500.000000 u_1_1_3 - 3.000000 s_1_3 + 3.000000 s_1_7 > 5.306707
t_1_3 - t_1_1 - 500.000000 u_1_1_3 > -496.252093
t_2_1 - t_2_3 + 500.000000 u_2_1_3 - 3.000000 s_2_3 + 3.000000 s_2_7 > 4.201899
t_2_3 - t_2_1 - 500.000000 u_2_1_3 > -490.900480
t_1_1 - t_1_4 + 500.000000 u_1_1_4 - 6.000000 s_1_4 + 6.000000 s_1_7 > 2.669467
t_1_4 - t_1_1 - 500.000000 u_1_1_4 > -496.252093
t_2_1 - t_2_4 + 500.000000 u_2_1_4 - 6.000000 s_2_4 + 6.000000 s_2_7 > 4.329893
t_2_4 - t_2_1 - 500.000000 u_2_1_4 > -490.900480
t_1_1 - t_1_5 + 500.000000 u_1_1_5 - 6.000000 s_1_5 + 6.000000 s_1_7 > 2.308920
t_1_5 - t_1_1 - 500.000000 u_1_1_5 > -496.252093
t_2_1 - t_2_5 + 500.000000 u_2_1_5 - 6.000000 s_2_5 + 6.000000 s_2_7 > 1.635260
t_2_5 - t_2_1 - 500.000000 u_2_1_5 > -490.900480
t_1_1 - t_1_6 - 500.000000 s_1_6 > -491.975720
t_1_1 - t_2_6 - 500.000000 s_2_6 > -496.786244
t_2_1 - t_1_6 - 500.000000 s_1_6 > -491.975720
t_2_1 - t_2_6 - 500.000000 s_2_6 > -496.786244
t_1_1 - t_1_7 + 500.000000 u_1_1_7 > 4.702773
t_1_7 - t_1_1 - 500.000000 u_1_1_7 > -496.252093
t_2_1 - t_2_7 + 500.000000 u_2_1_7 > 0.308692
t_2_7 - t_2_1 - 500.000000 u_2_1_7 > -490.900480
t_1_8 - t_1_1 - 500.000000 s_1_1 > -493.252093
t_1_8 - t_2_1 - 500.000000 s_2_1 > -487.900480
t_2_8 - t_1_1 - 500.000000 s_1_1 > -493.252093
t_2_8 - t_2_1 - 500.000000 s_2_1 > -487.900480
t_1_2 - t_1_1 + 500.000000 u_1_2_1 - 3.000000 s_1_1 + 3.000000 s_1_6 > 3.747907
t_1_1 - t_1_2 - 500.000000 u_1_2_1 > -495.334527
t_2_2 - t_2_1 + 500.000000 u_2_2_1 - 3.000000 s_2_1 + 3.000000 s_2_6 > 9.099520
t_2_1 - t_2_2 - 500.000000 u_2_2_1 > -492.129836
t_1_2 - t_1_3 + 500.000000 u_1_2_3 - 3.000000 s_1_3 + 3.000000 s_1_7 > 5.306707
t_1_3 - t_1_2 - 500.000000 u_1_2_3 > -495.334527
t_2_2 - t_2_3 + 500.000000 u_2_2_3 - 3.000000 s_2_3 + 3.000000 s_2_7 > 4.201899
t_2_3 - t_2_2 - 500.000000 u_2_2_3 > -492.129836
t_1_2 - t_1_4 + 500.000000 u_1_2_4 - 6.000000 s_1_4 + 6.000000 s_1_7 > 2.669467
t_1_4 - t_1_2 - 500.000000 u_1_2_4 > -495.334527
t_2_2 - t_2_4 + 500.000000 u_2_2_4 - 6.000000 s_2_4 + 6.000000 s_2_7 > 4.329893
t_2_4 - t_2_2 - 500.000000 u_2_2_4 > -492.129836
t_1_2 - t_1_5 + 500.000000 u_1_2_5 - 6.000000 s_1_5 + 6.000000 s_1_7 > 2.308920
t_1_5 - t_1_2 - 500.000000 u_1_2_5 > -495.334527
t_2_2 - t_2_5 + 500.000000 u_2_2_5 - 6.000000 s_2_5 + 6.000000 s_2_7 > 1.635260
t_2_5 - t_2_2 - 500.000000 u_2_2_5 > -492.129836
t_1_2 - t_1_6 + 500.000000 u_1_2_6 > 5.024280
t_1_6 - t_1_2 - 500.000000 u_1_2_6 > -495.334527
t_2_2 - t_2_6 + 500.000000 u_2_2_6 > 0.213756
t_2_6 - t_2_2 - 500.000000 u_2_2_6 > -492.129836
t_1_2 - t_1_7 - 500.000000 s_1_7 > -492.297227
t_1_2 - t_2_7 - 500.000000 s_2_7 > -496.691308
t_2_2 - t_1_7 - 500.000000 s_1_7 > -492.297227
t_2_2 - t_2_7 - 500.000000 s_2_7 > -496.691308
t_1_8 - t_1_2 - 500.000000 s_1_2 > -492.334527
t_1_8 - t_2_2 - 500.000000 s_2_2 > -489.129836
t_2_8 - t_1_2 - 500.000000 s_1_2 > -492.334527
t_2_8 - t_2_2 - 500.000000 s_2_2 > -489.129836
t_1_3 - t_1_1 + 500.000000 u_1_3_1 - 3.000000 s_1_1 + 3.000000 s_1_6 > 3.747907
t_1_1 - t_1_3 - 500.000000 u_1_3_1 > -494.693293
t_2_3 - t_2_1 + 500.000000 u_2_3_1 - 3.000000 s_2_1 + 3.000000 s_2_6 > 9.099520
t_2_1 - t_2_3 - 500.000000 u_2_3_1 > -495.798101
t_1_3 - t_1_2 + 500.000000 u_1_3_2 - 3.000000 s_1_2 + 3.000000 s_1_7 > 4.665473
t_1_2 - t_1_3 - 500.000000 u_1_3_2 > -494.693293
t_2_3 - t_2_2 + 500.000000 u_2_3_2 - 3.000000 s_2_2 + 3.000000 s_2_7 > 7.870164
t_2_2 - t_2_3 - 500.000000 u_2_3_2 > -495.798101
t_1_4 - t_1_3 - 500.000000 s_1_3 > -491.693293
t_1_4 - t_2_3 - 500.000000 s_2_3 > -492.798101
t_2_4 - t_1_3 - 500.000000 s_1_3 > -491.693293
t_2_4 - t_2_3 - 500.000000 s_2_3 > -492.798101
t_1_3 - t_1_5 + 500.000000 u_1_3_5 - 6.000000 s_1_5 + 6.000000 s_1_7 > 2.308920
t_1_5 - t_1_3 - 500.000000 u_1_3_5 > -494.693293
t_2_3 - t_2_5 + 500.000000 u_2_3_5 - 6.000000 s_2_5 + 6.000000 s_2_7 > 1.635260
t_2_5 - t_2_3 - 500.000000 u_2_3_5 > -495.798101
t_1_3 - t_1_6 + 500.000000 u_1_3_6 > 5.024280
t_1_6 - t_1_3 - 500.000000 u_1_3_6 > -494.693293
t_2_3 - t_2_6 + 500.000000 u_2_3_6 > 0.213756
t_2_6 - t_2_3 - 500.000000 u_2_3_6 > -495.798101
t_1_3 - t_1_7 - 500.000000 s_1_7 > -492.297227
t_1_3 - t_2_7 - 500.000000 s_2_7 > -496.691308
t_2_3 - t_1_7 - 500.000000 s_1_7 > -492.297227
t_2_3 - t_2_7 - 500.000000 s_2_7 > -496.691308
t_1_8 - t_1_3 - 500.000000 s_1_3 > -491.693293
t_1_8 - t_2_3 - 500.000000 s_2_3 > -492.798101
t_2_8 - t_1_3 - 500.000000 s_1_3 > -491.693293
t_2_8 - t_2_3 - 500.000000 s_2_3 > -492.798101
t_1_4 - t_1_1 + 500.000000 u_1_4_1 - 3.000000 s_1_1 + 3.000000 s_1_6 > 3.747907
t_1_1 - t_1_4 - 500.000000 u_1_4_1 > -497.330533
t_2_4 - t_2_1 + 500.000000 u_2_4_1 - 3.000000 s_2_1 + 3.000000 s_2_6 > 9.099520
t_2_1 - t_2_4 - 500.000000 u_2_4_1 > -495.670107
t_1_4 - t_1_2 + 500.000000 u_1_4_2 - 3.000000 s_1_2 + 3.000000 s_1_7 > 4.665473
t_1_2 - t_1_4 - 500.000000 u_1_4_2 > -497.330533
t_2_4 - t_2_2 + 500.000000 u_2_4_2 - 3.000000 s_2_2 + 3.000000 s_2_7 > 7.870164
t_2_2 - t_2_4 - 500.000000 u_2_4_2 > -495.670107
t_1_4 - t_1_3 - 500.000000 s_1_3 > -491.693293
t_1_4 - t_2_3 - 500.000000 s_2_3 > -492.798101
t_2_4 - t_1_3 - 500.000000 s_1_3 > -491.693293
t_2_4 - t_2_3 - 500.000000 s_2_3 > -492.798101
t_1_4 - t_1_5 + 500.000000 u_1_4_5 - 6.000000 s_1_5 + 6.000000 s_1_7 > 2.308920
t_1_5 - t_1_4 - 500.000000 u_1_4_5 > -497.330533
t_2_4 - t_2_5 + 500.000000 u_2_4_5 - 6.000000 s_2_5 + 6.000000 s_2_7 > 1.635260
t_2_5 - t_2_4 - 500.000000 u_2_4_5 > -495.670107
t_1_4 - t_1_6 + 500.000000 u_1_4_6 > 5.024280
t_1_6 - t_1_4 - 500.000000 u_1_4_6 > -497.330533
t_2_4 - t_2_6 + 500.000000 u_2_4_6 > 0.213756
t_2_6 - t_2_4 - 500.000000 u_2_4_6 > -495.670107
t_1_4 - t_1_7 - 500.000000 s_1_7 > -492.297227
t_1_4 - t_2_7 - 500.000000 s_2_7 > -496.691308
t_2_4 - t_1_7 - 500.000000 s_1_7 > -492.297227
t_2_4 - t_2_7 - 500.000000 s_2_7 > -496.691308
t_1_8 - t_1_4 - 500.000000 s_1_4 > -491.330533
t_1_8 - t_2_4 - 500.000000 s_2_4 > -489.670107
t_2_8 - t_1_4 - 500.000000 s_1_4 > -491.330533
t_2_8 - t_2_4 - 500.000000 s_2_4 > -489.670107
t_1_5 - t_1_1 + 500.000000 u_1_5_1 - 3.000000 s_1_1 + 3.000000 s_1_6 > 3.747907
t_1_1 - t_1_5 - 500.000000 u_1_5_1 > -497.691080
t_2_5 - t_2_1 + 500.000000 u_2_5_1 - 3.000000 s_2_1 + 3.000000 s_2_6 > 9.099520
t_2_1 - t_2_5 - 500.000000 u_2_5_1 > -498.364740
t_1_5 - t_1_2 + 500.000000 u_1_5_2 - 3.000000 s_1_2 + 3.000000 s_1_7 > 4.665473
t_1_2 - t_1_5 - 500.000000 u_1_5_2 > -497.691080
t_2_5 - t_2_2 + 500.000000 u_2_5_2 - 3.000000 s_2_2 + 3.000000 s_2_7 > 7.870164
t_2_2 - t_2_5 - 500.000000 u_2_5_2 > -498.364740
t_1_5 - t_1_3 + 500.000000 u_1_5_3 - 3.000000 s_1_3 + 3.000000 s_1_7 > 5.306707
t_1_3 - t_1_5 - 500.000000 u_1_5_3 > -497.691080
t_2_5 - t_2_3 + 500.000000 u_2_5_3 - 3.000000 s_2_3 + 3.000000 s_2_7 > 4.201899
t_2_3 - t_2_5 - 500.000000 u_2_5_3 > -498.364740
t_1_5 - t_1_4 + 500.000000 u_1_5_4 - 6.000000 s_1_4 + 6.000000 s_1_7 > 2.669467
t_1_4 - t_1_5 - 500.000000 u_1_5_4 > -497.691080
t_2_5 - t_2_4 + 500.000000 u_2_5_4 - 6.000000 s_2_4 + 6.000000 s_2_7 > 4.329893
t_2_4 - t_2_5 - 500.000000 u_2_5_4 > -498.364740
t_1_5 - t_1_6 - 500.000000 s_1_6 > -491.975720
t_1_5 - t_2_6 - 500.000000 s_2_6 > -496.786244
t_2_5 - t_1_6 - 500.000000 s_1_6 > -491.975720
t_2_5 - t_2_6 - 500.000000 s_2_6 > -496.786244
t_1_5 - t_1_7 - 500.000000 s_1_7 > -492.297227
t_1_5 - t_2_7 - 500.000000 s_2_7 > -496.691308
t_2_5 - t_1_7 - 500.000000 s_1_7 > -492.297227
t_2_5 - t_2_7 - 500.000000 s_2_7 > -496.691308
t_1_8 - t_1_5 - 500.000000 s_1_5 > -491.691080
t_1_8 - t_2_5 - 500.000000 s_2_5 > -492.364740
t_2_8 - t_1_5 - 500.000000 s_1_5 > -491.691080
t_2_8 - t_2_5 - 500.000000 s_2_5 > -492.364740
t_1_1 - t_1_6 - 500.000000 s_1_6 > -491.975720
t_1_1 - t_2_6 - 500.000000 s_2_6 > -496.786244
t_2_1 - t_1_6 - 500.000000 s_1_6 > -491.975720
t_2_1 - t_2_6 - 500.000000 s_2_6 > -496.786244
t_1_6 - t_1_2 + 500.000000 u_1_6_2 - 3.000000 s_1_2 + 3.000000 s_1_7 > 4.665473
t_1_2 - t_1_6 - 500.000000 u_1_6_2 > -494.975720
t_2_6 - t_2_2 + 500.000000 u_2_6_2 - 3.000000 s_2_2 + 3.000000 s_2_7 > 7.870164
t_2_2 - t_2_6 - 500.000000 u_2_6_2 > -499.786244
t_1_6 - t_1_3 + 500.000000 u_1_6_3 - 3.000000 s_1_3 + 3.000000 s_1_7 > 5.306707
t_1_3 - t_1_6 - 500.000000 u_1_6_3 > -494.975720
t_2_6 - t_2_3 + 500.000000 u_2_6_3 - 3.000000 s_2_3 + 3.000000 s_2_7 > 4.201899
t_2_3 - t_2_6 - 500.000000 u_2_6_3 > -499.786244
t_1_6 - t_1_4 + 500.000000 u_1_6_4 - 6.000000 s_1_4 + 6.000000 s_1_7 > 2.669467
t_1_4 - t_1_6 - 500.000000 u_1_6_4 > -494.975720
t_2_6 - t_2_4 + 500.000000 u_2_6_4 - 6.000000 s_2_4 + 6.000000 s_2_7 > 4.329893
t_2_4 - t_2_6 - 500.000000 u_2_6_4 > -499.786244
t_1_5 - t_1_6 - 500.000000 s_1_6 > -491.975720
t_1_5 - t_2_6 - 500.000000 s_2_6 > -496.786244
t_2_5 - t_1_6 - 500.000000 s_1_6 > -491.975720
t_2_5 - t_2_6 - 500.000000 s_2_6 > -496.786244
t_1_6 - t_1_7 + 500.000000 u_1_6_7 > 4.702773
t_1_7 - t_1_6 - 500.000000 u_1_6_7 > -494.975720
t_2_6 - t_2_7 + 500.000000 u_2_6_7 > 0.308692
t_2_7 - t_2_6 - 500.000000 u_2_6_7 > -499.786244
t_1_7 - t_1_1 + 500.000000 u_1_7_1 - 3.000000 s_1_1 + 3.000000 s_1_6 > 3.747907
t_1_1 - t_1_7 - 500.000000 u_1_7_1 > -495.297227
t_2_7 - t_2_1 + 500.000000 u_2_7_1 - 3.000000 s_2_1 + 3.000000 s_2_6 > 9.099520
t_2_1 - t_2_7 - 500.000000 u_2_7_1 > -499.691308
t_1_2 - t_1_7 - 500.000000 s_1_7 > -492.297227
t_1_2 - t_2_7 - 500.000000 s_2_7 > -496.691308
t_2_2 - t_1_7 - 500.000000 s_1_7 > -492.297227
t_2_2 - t_2_7 - 500.000000 s_2_7 > -496.691308
t_1_3 - t_1_7 - 500.000000 s_1_7 > -492.297227
t_1_3 - t_2_7 - 500.000000 s_2_7 > -496.691308
t_2_3 - t_1_7 - 500.000000 s_1_7 > -492.297227
t_2_3 - t_2_7 - 500.000000 s_2_7 > -496.691308
t_1_4 - t_1_7 - 500.000000 s_1_7 > -492.297227
t_1_4 - t_2_7 - 500.000000 s_2_7 > -496.691308
t_2_4 - t_1_7 - 500.000000 s_1_7 > -492.297227
t_2_4 - t_2_7 - 500.000000 s_2_7 > -496.691308
t_1_5 - t_1_7 - 500.000000 s_1_7 > -492.297227
t_1_5 - t_2_7 - 500.000000 s_2_7 > -496.691308
t_2_5 - t_1_7 - 500.000000 s_1_7 > -492.297227
t_2_5 - t_2_7 - 500.000000 s_2_7 > -496.691308
t_1_7 - t_1_6 + 500.000000 u_1_7_6 > 5.024280
t_1_6 - t_1_7 - 500.000000 u_1_7_6 > -495.297227
t_2_7 - t_2_6 + 500.000000 u_2_7_6 > 0.213756
t_2_6 - t_2_7 - 500.000000 u_2_7_6 > -499.691308
t_1_8 - t_1_1 - 500.000000 s_1_1 > -493.252093
t_1_8 - t_2_1 - 500.000000 s_2_1 > -487.900480
t_2_8 - t_1_1 - 500.000000 s_1_1 > -493.252093
t_2_8 - t_2_1 - 500.000000 s_2_1 > -487.900480
t_1_8 - t_1_2 - 500.000000 s_1_2 > -492.334527
t_1_8 - t_2_2 - 500.000000 s_2_2 > -489.129836
t_2_8 - t_1_2 - 500.000000 s_1_2 > -492.334527
t_2_8 - t_2_2 - 500.000000 s_2_2 > -489.129836
t_1_8 - t_1_3 - 500.000000 s_1_3 > -491.693293
t_1_8 - t_2_3 - 500.000000 s_2_3 > -492.798101
t_2_8 - t_1_3 - 500.000000 s_1_3 > -491.693293
t_2_8 - t_2_3 - 500.000000 s_2_3 > -492.798101
t_1_8 - t_1_4 - 500.000000 s_1_4 > -491.330533
t_1_8 - t_2_4 - 500.000000 s_2_4 > -489.670107
t_2_8 - t_1_4 - 500.000000 s_1_4 > -491.330533
t_2_8 - t_2_4 - 500.000000 s_2_4 > -489.670107
t_1_8 - t_1_5 - 500.000000 s_1_5 > -491.691080
t_1_8 - t_2_5 - 500.000000 s_2_5 > -492.364740
t_2_8 - t_1_5 - 500.000000 s_1_5 > -491.691080
t_2_8 - t_2_5 - 500.000000 s_2_5 > -492.364740
Binary
s_1_1
s_2_1
s_1_2
s_2_2
s_1_3
s_2_3
s_1_4
s_2_4
s_1_5
s_2_5
s_1_6
s_2_6
s_1_7
s_2_7
s_1_8
s_2_8
u_1_1_2
u_2_1_2
u_1_1_3
u_2_1_3
u_1_1_4
u_2_1_4
u_1_1_5
u_2_1_5
u_1_1_7
u_2_1_7
u_1_2_1
u_2_2_1
u_1_2_3
u_2_2_3
u_1_2_4
u_2_2_4
u_1_2_5
u_2_2_5
u_1_2_6
u_2_2_6
u_1_3_1
u_2_3_1
u_1_3_2
u_2_3_2
u_1_3_5
u_2_3_5
u_1_3_6
u_2_3_6
u_1_4_1
u_2_4_1
u_1_4_2
u_2_4_2
u_1_4_5
u_2_4_5
u_1_4_6
u_2_4_6
u_1_5_1
u_2_5_1
u_1_5_2
u_2_5_2
u_1_5_3
u_2_5_3
u_1_5_4
u_2_5_4
u_1_6_2
u_2_6_2
u_1_6_3
u_2_6_3
u_1_6_4
u_2_6_4
u_1_6_7
u_2_6_7
u_1_7_1
u_2_7_1
u_1_7_6
u_2_7_6

End
